 &control
    calculation        = 'scf',
    prefix             = 'srvo3',
    tstress            = .true., 
    tprnfor            = .true., 
    pseudo_dir         = '${app_dir}/${app}/pseudo/',
    outdir             = '${output_dir}',
    verbosity          = 'high'
 / 
 &system 
    ibrav              = 1,
    celldm(1)          = 7.2612,
    nat                = 5,
    ntyp               = 3,
    ecutwfc            = 60.0,
    ecutrho            = 720.0,
    occupations        = 'smearing',
    degauss            = 0.02,
    smearing           = 'm-p',
 / 
 &electrons 
    mixing_beta        = 0.7,
    mixing_mode        = 'local-TF'
 /
 
 ATOMIC_SPECIES 
    Sr	87.62		Sr.pbesol-spn-rrkjus_psl.1.0.0.UPF
    V	50.9415		V.pbesol-spnl-rrkjus_psl.1.0.0.UPF
    O	15.9994		O.pbesol-n-rrkjus_psl.0.1.UPF 
 
 ATOMIC_POSITIONS (crystal)
 Sr       0.000000000   0.000000000   0.000000000
 V        0.500000000   0.500000000   0.500000000
 O        0.500000000   0.500000000   0.000000000
 O        0.500000000   0.000000000   0.500000000
 O        0.000000000   0.500000000   0.500000000

 K_POINTS crystal
 125
   0.00000000  0.00000000  0.00000000  8.000000e-03
   0.00000000  0.00000000  0.20000000  8.000000e-03
   0.00000000  0.00000000  0.40000000  8.000000e-03
   0.00000000  0.00000000  0.60000000  8.000000e-03
   0.00000000  0.00000000  0.80000000  8.000000e-03
   0.00000000  0.20000000  0.00000000  8.000000e-03
   0.00000000  0.20000000  0.20000000  8.000000e-03
   0.00000000  0.20000000  0.40000000  8.000000e-03
   0.00000000  0.20000000  0.60000000  8.000000e-03
   0.00000000  0.20000000  0.80000000  8.000000e-03
   0.00000000  0.40000000  0.00000000  8.000000e-03
   0.00000000  0.40000000  0.20000000  8.000000e-03
   0.00000000  0.40000000  0.40000000  8.000000e-03
   0.00000000  0.40000000  0.60000000  8.000000e-03
   0.00000000  0.40000000  0.80000000  8.000000e-03
   0.00000000  0.60000000  0.00000000  8.000000e-03
   0.00000000  0.60000000  0.20000000  8.000000e-03
   0.00000000  0.60000000  0.40000000  8.000000e-03
   0.00000000  0.60000000  0.60000000  8.000000e-03
   0.00000000  0.60000000  0.80000000  8.000000e-03
   0.00000000  0.80000000  0.00000000  8.000000e-03
   0.00000000  0.80000000  0.20000000  8.000000e-03
   0.00000000  0.80000000  0.40000000  8.000000e-03
   0.00000000  0.80000000  0.60000000  8.000000e-03
   0.00000000  0.80000000  0.80000000  8.000000e-03
   0.20000000  0.00000000  0.00000000  8.000000e-03
   0.20000000  0.00000000  0.20000000  8.000000e-03
   0.20000000  0.00000000  0.40000000  8.000000e-03
   0.20000000  0.00000000  0.60000000  8.000000e-03
   0.20000000  0.00000000  0.80000000  8.000000e-03
   0.20000000  0.20000000  0.00000000  8.000000e-03
   0.20000000  0.20000000  0.20000000  8.000000e-03
   0.20000000  0.20000000  0.40000000  8.000000e-03
   0.20000000  0.20000000  0.60000000  8.000000e-03
   0.20000000  0.20000000  0.80000000  8.000000e-03
   0.20000000  0.40000000  0.00000000  8.000000e-03
   0.20000000  0.40000000  0.20000000  8.000000e-03
   0.20000000  0.40000000  0.40000000  8.000000e-03
   0.20000000  0.40000000  0.60000000  8.000000e-03
   0.20000000  0.40000000  0.80000000  8.000000e-03
   0.20000000  0.60000000  0.00000000  8.000000e-03
   0.20000000  0.60000000  0.20000000  8.000000e-03
   0.20000000  0.60000000  0.40000000  8.000000e-03
   0.20000000  0.60000000  0.60000000  8.000000e-03
   0.20000000  0.60000000  0.80000000  8.000000e-03
   0.20000000  0.80000000  0.00000000  8.000000e-03
   0.20000000  0.80000000  0.20000000  8.000000e-03
   0.20000000  0.80000000  0.40000000  8.000000e-03
   0.20000000  0.80000000  0.60000000  8.000000e-03
   0.20000000  0.80000000  0.80000000  8.000000e-03
   0.40000000  0.00000000  0.00000000  8.000000e-03
   0.40000000  0.00000000  0.20000000  8.000000e-03
   0.40000000  0.00000000  0.40000000  8.000000e-03
   0.40000000  0.00000000  0.60000000  8.000000e-03
   0.40000000  0.00000000  0.80000000  8.000000e-03
   0.40000000  0.20000000  0.00000000  8.000000e-03
   0.40000000  0.20000000  0.20000000  8.000000e-03
   0.40000000  0.20000000  0.40000000  8.000000e-03
   0.40000000  0.20000000  0.60000000  8.000000e-03
   0.40000000  0.20000000  0.80000000  8.000000e-03
   0.40000000  0.40000000  0.00000000  8.000000e-03
   0.40000000  0.40000000  0.20000000  8.000000e-03
   0.40000000  0.40000000  0.40000000  8.000000e-03
   0.40000000  0.40000000  0.60000000  8.000000e-03
   0.40000000  0.40000000  0.80000000  8.000000e-03
   0.40000000  0.60000000  0.00000000  8.000000e-03
   0.40000000  0.60000000  0.20000000  8.000000e-03
   0.40000000  0.60000000  0.40000000  8.000000e-03
   0.40000000  0.60000000  0.60000000  8.000000e-03
   0.40000000  0.60000000  0.80000000  8.000000e-03
   0.40000000  0.80000000  0.00000000  8.000000e-03
   0.40000000  0.80000000  0.20000000  8.000000e-03
   0.40000000  0.80000000  0.40000000  8.000000e-03
   0.40000000  0.80000000  0.60000000  8.000000e-03
   0.40000000  0.80000000  0.80000000  8.000000e-03
   0.60000000  0.00000000  0.00000000  8.000000e-03
   0.60000000  0.00000000  0.20000000  8.000000e-03
   0.60000000  0.00000000  0.40000000  8.000000e-03
   0.60000000  0.00000000  0.60000000  8.000000e-03
   0.60000000  0.00000000  0.80000000  8.000000e-03
   0.60000000  0.20000000  0.00000000  8.000000e-03
   0.60000000  0.20000000  0.20000000  8.000000e-03
   0.60000000  0.20000000  0.40000000  8.000000e-03
   0.60000000  0.20000000  0.60000000  8.000000e-03
   0.60000000  0.20000000  0.80000000  8.000000e-03
   0.60000000  0.40000000  0.00000000  8.000000e-03
   0.60000000  0.40000000  0.20000000  8.000000e-03
   0.60000000  0.40000000  0.40000000  8.000000e-03
   0.60000000  0.40000000  0.60000000  8.000000e-03
   0.60000000  0.40000000  0.80000000  8.000000e-03
   0.60000000  0.60000000  0.00000000  8.000000e-03
   0.60000000  0.60000000  0.20000000  8.000000e-03
   0.60000000  0.60000000  0.40000000  8.000000e-03
   0.60000000  0.60000000  0.60000000  8.000000e-03
   0.60000000  0.60000000  0.80000000  8.000000e-03
   0.60000000  0.80000000  0.00000000  8.000000e-03
   0.60000000  0.80000000  0.20000000  8.000000e-03
   0.60000000  0.80000000  0.40000000  8.000000e-03
   0.60000000  0.80000000  0.60000000  8.000000e-03
   0.60000000  0.80000000  0.80000000  8.000000e-03
   0.80000000  0.00000000  0.00000000  8.000000e-03
   0.80000000  0.00000000  0.20000000  8.000000e-03
   0.80000000  0.00000000  0.40000000  8.000000e-03
   0.80000000  0.00000000  0.60000000  8.000000e-03
   0.80000000  0.00000000  0.80000000  8.000000e-03
   0.80000000  0.20000000  0.00000000  8.000000e-03
   0.80000000  0.20000000  0.20000000  8.000000e-03
   0.80000000  0.20000000  0.40000000  8.000000e-03
   0.80000000  0.20000000  0.60000000  8.000000e-03
   0.80000000  0.20000000  0.80000000  8.000000e-03
   0.80000000  0.40000000  0.00000000  8.000000e-03
   0.80000000  0.40000000  0.20000000  8.000000e-03
   0.80000000  0.40000000  0.40000000  8.000000e-03
   0.80000000  0.40000000  0.60000000  8.000000e-03
   0.80000000  0.40000000  0.80000000  8.000000e-03
   0.80000000  0.60000000  0.00000000  8.000000e-03
   0.80000000  0.60000000  0.20000000  8.000000e-03
   0.80000000  0.60000000  0.40000000  8.000000e-03
   0.80000000  0.60000000  0.60000000  8.000000e-03
   0.80000000  0.60000000  0.80000000  8.000000e-03
   0.80000000  0.80000000  0.00000000  8.000000e-03
   0.80000000  0.80000000  0.20000000  8.000000e-03
   0.80000000  0.80000000  0.40000000  8.000000e-03
   0.80000000  0.80000000  0.60000000  8.000000e-03
   0.80000000  0.80000000  0.80000000  8.000000e-03
 
