 &control
    calculation='scf'
    restart_mode='from_scratch',
    prefix='alas',
    lelfield=.true.,
    nberrycyc=3
    pseudo_dir='../../pseudo/',
    outdir='./'
    tprnfor=.true.,
    verbosity='high'
 /
 &system
    ibrav= 1, celldm(1)=10.60, nat=  8, ntyp= 2
    ecutwfc = 20.0
 /
 &electrons
    diagonalization='david',
    conv_thr =  1.0d-8,
    mixing_beta = 0.5,
    startingwfc='random',
    efield_cart(1)=0.d0,efield_cart(2)=0.d0,efield_cart(3)=0.001d0
 /
ATOMIC_SPECIES
 Al  26.98 Al.pz-vbc.UPF
 As  74.90 As.pz-bhs.UPF
ATOMIC_POSITIONS alat
 Al -0.125 -0.125 -0.125
 Al  0.375  0.375 -0.125
 Al  0.375 -0.125  0.375
 Al -0.125  0.375  0.375
 As  0.125  0.125  0.125
 As  0.625  0.625  0.125
 As  0.625  0.125  0.625
 As  0.125  0.625  0.625
K_POINTS {automatic}
3 3 7 0 0 0
